52      4       
10      10      10      10      
0       0       0       0       0       5       2       3       4       5       9       
8       0       1       0       0       5       6       7       8       10      15      
7       0       0       1       1       4       6       7       11      15      
3       4       2       9       9       3       6       7       11      
3       2       0       10      0       2       6       11      
7       0       10      0       0       5       12      14      16      19      27      
7       0       5       2       0       5       12      14      16      19      27      
6       8       5       8       0       5       12      14      16      19      27      
9       0       7       0       0       5       13      16      19      20      27      
8       2       0       0       6       6       17      18      19      20      24      27      
5       0       5       7       0       6       18      20      21      22      24      27      
2       6       5       3       0       1       13      
1       7       0       0       0       3       17      18      24      
1       4       5       0       0       5       20      22      23      24      34      
9       0       4       6       0       2       16      20      
2       4       0       0       4       5       21      25      28      29      34      
6       0       10      7       0       4       21      22      28      29      
6       6       0       0       7       4       23      26      28      34      
2       0       10      7       0       4       23      26      28      29      
6       4       3       0       0       4       26      28      29      30      
10      0       3       0       6       2       23      26      
2       6       6       4       0       2       25      30      
9       8       0       0       0       6       30      31      32      33      37      38      
10      7       0       3       0       3       26      31      36      
9       2       7       2       5       2       26      31      
8       5       3       0       0       4       32      33      37      38      
9       0       4       0       4       4       31      32      33      37      
4       5       5       7       0       4       31      36      38      43      
6       0       6       0       7       2       31      37      
5       0       0       3       6       4       35      36      39      42      
9       0       0       7       4       7       39      41      42      46      49      50      51      
9       2       0       0       2       2       35      39      
2       8       4       10      1       5       39      41      46      49      50      
1       0       0       3       5       5       39      41      42      46      49      
4       0       10      7       0       7       41      43      45      46      48      49      50      
4       0       3       5       0       6       40      46      47      48      49      50      
1       5       5       0       0       5       42      43      46      47      51      
9       8       0       0       6       3       39      46      49      
2       0       0       0       5       3       40      45      48      
9       0       3       4       0       1       44      
3       0       0       6       8       1       47      
8       0       3       6       0       1       45      
3       0       0       4       2       1       44      
8       0       7       0       6       1       52      
3       5       0       0       4       1       52      
10      3       0       4       0       1       52      
10      0       0       6       5       1       52      
8       7       0       6       0       1       52      
9       2       7       0       0       1       52      
4       7       0       0       8       1       52      
1       8       0       0       6       1       52      
0       0       0       0       0       0       
